p cnf 34 52
1 2 0
1 3 0
4 5 0
6 7 0
8 9 0
10 11 0
12 13 0
12 14 0
15 16 0
17 18 0
2 -3 0
13 -14 0
-1 -2 0
-4 -5 0
-6 -7 0
-8 -9 0
-10 -11 0
-12 -13 0
-15 -16 0
-17 -18 0
4 19 -12 0
4 20 -13 0
10 21 -12 0
10 22 -13 0
15 23 -1 0
15 24 -2 0
17 25 -8 0
17 26 -9 0
5 -12 -19 0
5 -13 -20 0
11 -12 -21 0
11 -13 -22 0
16 -1 -23 0
16 -2 -24 0
18 -8 -25 0
18 -9 -26 0
6 27 -4 -8 0
6 28 -5 -8 0
6 29 -4 -9 0
6 30 -5 -9 0
8 31 -10 -15 0
8 32 -11 -15 0
8 33 -10 -16 0
8 34 -11 -16 0
7 -4 -8 -27 0
7 -4 -9 -29 0
7 -5 -8 -28 0
7 -5 -9 -30 0
9 -10 -15 -31 0
9 -10 -16 -33 0
9 -11 -15 -32 0
9 -11 -16 -34 0